feasible solution found by trivial heuristic after 0.1 seconds, objective value 0.000000e+00
presolving:
(round 1, fast)       4700 del vars, 2934 del conss, 0 add conss, 4946 chg bounds, 0 chg sides, 0 chg coeffs, 0 upgd conss, 0 impls, 3076 clqs
(round 2, fast)       4969 del vars, 2934 del conss, 0 add conss, 4946 chg bounds, 0 chg sides, 0 chg coeffs, 0 upgd conss, 0 impls, 3076 clqs
   (0.2s) running MILP presolver
   (0.2s) MILP presolver (2 rounds): 1290 aggregations, 7740 fixings, 0 bound changes
(round 3, medium)     13999 del vars, 7906 del conss, 3563 add conss, 4946 chg bounds, 0 chg sides, 0 chg coeffs, 0 upgd conss, 0 impls, 1786 clqs
(round 4, exhaustive) 13999 del vars, 7906 del conss, 3563 add conss, 4946 chg bounds, 0 chg sides, 0 chg coeffs, 3563 upgd conss, 0 impls, 1786 clqs
   (0.2s) probing: 51/2055 (2.5%) - 0 fixings, 0 aggregations, 0 implications, 0 bound changes
   (0.2s) probing aborted: 50/50 successive totally useless probings
   (0.2s) symmetry computation started: requiring (bin +, int -, cont +), (fixed: bin -, int +, cont -)
   (0.3s) no symmetry present
presolving (5 rounds: 5 fast, 3 medium, 2 exhaustive):
 13999 deleted vars, 7906 deleted constraints, 3563 added constraints, 4946 tightened bounds, 0 added holes, 0 changed sides, 0 changed coefficients
 0 implications, 1786 cliques
presolved problem has 2055 variables (2055 bin, 0 int, 0 impl, 0 cont) and 3563 constraints
   1786 constraints of type <setppc>
   1777 constraints of type <logicor>
Presolving Time: 0.22

 time | node  | left  |LP iter|LP it/n|mem/heur|mdpt |vars |cons |rows |cuts |sepa|confs|strbr|  dualbound   | primalbound  |  gap   | compl. 
t 0.3s|     1 |     0 |     0 |     - | trivial|   0 |2055 |3563 |   0 |   0 |  0 |   0 |   0 | 2.389328e+08 | 1.704164e+06 |  Large | unknown
p 0.3s|     1 |     0 |     0 |     - |   locks|   0 |2055 |3563 |3563 |   0 |  0 |   0 |   0 | 2.389328e+08 | 6.747322e+07 | 254.12%| unknown
i 0.3s|     1 |     0 |     0 |     - |  oneopt|   0 |2055 |3563 |3563 |   0 |  0 |   0 |   0 | 2.389328e+08 | 6.879504e+07 | 247.31%| unknown
  0.3s|     1 |     0 |   968 |     - |    84M |   0 |2055 |3563 |3563 |   0 |  0 |   0 |   0 | 8.691400e+07 | 6.879504e+07 |  26.34%| unknown
  0.5s|     1 |     0 |  1000 |     - |    85M |   0 |2055 |3563 |3565 |   2 |  1 |   0 |   0 | 8.691392e+07 | 6.879504e+07 |  26.34%| unknown
  0.6s|     1 |     0 |  1199 |     - |    86M |   0 |2055 |3563 |3580 |  17 |  2 |   0 |   0 | 8.592244e+07 | 6.879504e+07 |  24.90%| unknown
  0.8s|     1 |     0 |  1334 |     - |    86M |   0 |2055 |3563 |3592 |  29 |  3 |   0 |   0 | 8.546477e+07 | 6.879504e+07 |  24.23%| unknown
  0.9s|     1 |     0 |  1376 |     - |    87M |   0 |2055 |3563 |3601 |  38 |  4 |   0 |   0 | 8.546474e+07 | 6.879504e+07 |  24.23%| unknown
  1.1s|     1 |     0 |  1466 |     - |    87M |   0 |2055 |3563 |3614 |  51 |  5 |   0 |   0 | 8.546466e+07 | 6.879504e+07 |  24.23%| unknown
  1.3s|     1 |     0 |  1625 |     - |    89M |   0 |2055 |3563 |3624 |  61 |  6 |   0 |   0 | 8.513907e+07 | 6.879504e+07 |  23.76%| unknown
  1.4s|     1 |     0 |  1750 |     - |    89M |   0 |2055 |3563 |3635 |  72 |  7 |   0 |   0 | 8.493586e+07 | 6.879504e+07 |  23.46%| unknown
  1.5s|     1 |     0 |  1886 |     - |    90M |   0 |2055 |3563 |3646 |  83 |  8 |   0 |   0 | 8.481293e+07 | 6.879504e+07 |  23.28%| unknown
  1.6s|     1 |     0 |  2080 |     - |    92M |   0 |2055 |3563 |3659 |  96 |  9 |   0 |   0 | 8.476075e+07 | 6.879504e+07 |  23.21%| unknown
  1.8s|     1 |     0 |  2300 |     - |    93M |   0 |2055 |3563 |3670 | 107 | 10 |   0 |   0 | 8.468373e+07 | 6.879504e+07 |  23.10%| unknown
  1.8s|     1 |     0 |  2433 |     - |    94M |   0 |2055 |3563 |3682 | 119 | 11 |   0 |   0 | 8.468371e+07 | 6.879504e+07 |  23.10%| unknown
 time | node  | left  |LP iter|LP it/n|mem/heur|mdpt |vars |cons |rows |cuts |sepa|confs|strbr|  dualbound   | primalbound  |  gap   | compl. 
  1.8s|     1 |     0 |  2546 |     - |    94M |   0 |2055 |3563 |3691 | 128 | 12 |   0 |   0 | 8.468367e+07 | 6.879504e+07 |  23.10%| unknown
  1.8s|     1 |     0 |  2732 |     - |    95M |   0 |2055 |3563 |3702 | 139 | 13 |   0 |   0 | 8.468363e+07 | 6.879504e+07 |  23.10%| unknown
  1.9s|     1 |     0 |  2850 |     - |    95M |   0 |2055 |3563 |3711 | 148 | 14 |   0 |   0 | 8.468360e+07 | 6.879504e+07 |  23.10%| unknown
  1.9s|     1 |     0 |  2974 |     - |    96M |   0 |2055 |3563 |3718 | 155 | 15 |   0 |   0 | 8.468358e+07 | 6.879504e+07 |  23.10%| unknown
  1.9s|     1 |     0 |  3112 |     - |    96M |   0 |2055 |3563 |3726 | 163 | 16 |   0 |   0 | 8.466014e+07 | 6.879504e+07 |  23.06%| unknown
  1.9s|     1 |     0 |  3219 |     - |    97M |   0 |2055 |3563 |3723 | 168 | 17 |   0 |   0 | 8.466013e+07 | 6.879504e+07 |  23.06%| unknown
  2.0s|     1 |     0 |  3351 |     - |    97M |   0 |2055 |3563 |3731 | 176 | 18 |   0 |   0 | 8.460536e+07 | 6.879504e+07 |  22.98%| unknown
  2.0s|     1 |     0 |  3411 |     - |    97M |   0 |2055 |3563 |3734 | 179 | 19 |   0 |   0 | 8.460536e+07 | 6.879504e+07 |  22.98%| unknown
  2.0s|     1 |     0 |  3514 |     - |    98M |   0 |2055 |3563 |3740 | 185 | 20 |   0 |   0 | 8.450829e+07 | 6.879504e+07 |  22.84%| unknown
  2.1s|     1 |     0 |  3555 |     - |    98M |   0 |2055 |3563 |3742 | 187 | 21 |   0 |   0 | 8.450828e+07 | 6.879504e+07 |  22.84%| unknown
  2.1s|     1 |     0 |  3600 |     - |    98M |   0 |2055 |3563 |3744 | 189 | 22 |   0 |   0 | 8.450828e+07 | 6.879504e+07 |  22.84%| unknown
  2.1s|     1 |     0 |  3631 |     - |    98M |   0 |2055 |3563 |3726 | 194 | 23 |   0 |   0 | 8.449335e+07 | 6.879504e+07 |  22.82%| unknown
  2.1s|     1 |     0 |  3644 |     - |    99M |   0 |2055 |3563 |3729 | 197 | 24 |   0 |   0 | 8.449335e+07 | 6.879504e+07 |  22.82%| unknown
  2.1s|     1 |     0 |  3652 |     - |   100M |   0 |2055 |3563 |3730 | 198 | 25 |   0 |   0 | 8.449335e+07 | 6.879504e+07 |  22.82%| unknown
  2.2s|     1 |     0 |  3664 |     - |   100M |   0 |2055 |3563 |3733 | 201 | 26 |   0 |   0 | 8.449275e+07 | 6.879504e+07 |  22.82%| unknown
 time | node  | left  |LP iter|LP it/n|mem/heur|mdpt |vars |cons |rows |cuts |sepa|confs|strbr|  dualbound   | primalbound  |  gap   | compl. 
d 2.2s|     1 |     0 |  3973 |     - |farkasdi|   0 |2055 |3563 |3733 |   0 | 28 |   0 |   0 | 8.449275e+07 | 7.663692e+07 |  10.25%| unknown
d 2.2s|     1 |     0 |  4206 |     - |farkasdi|   0 |2055 |3563 |3733 |   0 | 28 |   0 |   0 | 8.449275e+07 | 7.663720e+07 |  10.25%| unknown
d 2.2s|     1 |     0 |  4337 |     - |farkasdi|   0 |2055 |3563 |3733 |   0 | 28 |   0 |   0 | 8.449275e+07 | 7.663733e+07 |  10.25%| unknown
d 2.2s|     1 |     0 |  4468 |     - |farkasdi|   0 |2055 |3563 |3733 |   0 | 28 |   0 |   0 | 8.449275e+07 | 7.663739e+07 |  10.25%| unknown
d 2.2s|     1 |     0 |  4542 |     - |farkasdi|   0 |2055 |3563 |3733 |   0 | 28 |   0 |   0 | 8.449275e+07 | 7.663761e+07 |  10.25%| unknown
d 2.2s|     1 |     0 |  4598 |     - |farkasdi|   0 |2055 |3563 |3733 |   0 | 28 |   0 |   0 | 8.449275e+07 | 7.663766e+07 |  10.25%| unknown
d 2.3s|     1 |     0 |  4641 |     - |farkasdi|   0 |2055 |3563 |3733 |   0 | 28 |   0 |   0 | 8.449275e+07 | 7.663795e+07 |  10.25%| unknown
d 2.3s|     1 |     0 |  4654 |     - |farkasdi|   0 |2055 |3563 |3733 |   0 | 28 |   0 |   0 | 8.449275e+07 | 7.664008e+07 |  10.25%| unknown
L 4.2s|     1 |     0 |  4654 |     - |    rens|   0 |2055 |3563 |3733 | 201 | 28 |   0 |   0 | 8.449275e+07 | 7.938475e+07 |   6.43%| unknown
  4.5s|     1 |     0 |  4654 |     - |   101M |   0 |2055 |3563 |3733 | 201 | 28 |   0 |   0 | 8.449275e+07 | 7.938475e+07 |   6.43%| unknown
  4.5s|     1 |     0 |  4654 |     - |   102M |   0 |2055 |3563 |3661 | 201 | 28 |   0 |   0 | 8.449275e+07 | 7.938475e+07 |   6.43%| unknown
  5.6s|     1 |     2 |  4654 |     - |   110M |   0 |2055 |3563 |3661 | 201 | 30 |   0 |  41 | 8.402740e+07 | 7.938475e+07 |   5.85%| unknown
* 9.4s|    10 |     9 |  5728 | 229.3 |strongbr|   9 |2055 |3572 |3628 | 201 |  2 |   9 | 346 | 8.402740e+07 | 7.938481e+07 |   5.85%| unknown
* 9.7s|    12 |     9 |  5869 | 200.5 |strongbr|  10 |2055 |3574 |3634 | 207 |  2 |  11 | 422 | 8.402740e+07 | 7.938482e+07 |   5.85%| unknown
*14.4s|    55 |    16 |  8580 |  91.0 |strongbr|  20 |2055 |3515 |3646 | 235 |  1 |  32 | 735 | 8.089289e+07 | 7.938487e+07 |   1.90%|  69.97%
 time | node  | left  |LP iter|LP it/n|mem/heur|mdpt |vars |cons |rows |cuts |sepa|confs|strbr|  dualbound   | primalbound  |  gap   | compl. 
*15.1s|    84 |    23 |  9568 |  71.1 |    LP  |  21 |2055 |3515 |3647 | 238 |  1 |  32 | 805 | 8.089289e+07 | 7.938488e+07 |   1.90%|  69.97%
 15.4s|   100 |    25 | 10323 |  67.3 |   124M |  21 |2055 |3515 |3643 | 252 |  1 |  32 | 820 | 8.089289e+07 | 7.938488e+07 |   1.90%|  69.98%
 18.3s|   200 |    27 | 15858 |  61.3 |   127M |  21 |2055 |2780 |3648 | 292 |  2 |  37 | 972 | 7.938522e+07 | 7.938488e+07 |   0.00%|  91.59%
*18.6s|   246 |    32 | 17465 |  56.3 |    LP  |  24 |2055 |2780 |3651 | 295 |  2 |  37 | 985 | 7.938522e+07 | 7.938489e+07 |   0.00%|  91.61%
 19.7s|   300 |    40 | 20694 |  57.0 |   130M |  24 |2055 |2781 |3665 | 324 |  1 |  38 | 998 | 7.938522e+07 | 7.938489e+07 |   0.00%|  91.96%
*21.5s|   389 |    49 | 26012 |  57.6 |    LP  |  24 |2055 |2795 |3664 | 377 |  1 |  52 |1043 | 7.938521e+07 | 7.938490e+07 |   0.00%|  92.72%
 21.6s|   400 |    52 | 26755 |  57.9 |   134M |  24 |2055 |2795 |3646 | 377 |  0 |  52 |1044 | 7.938520e+07 | 7.938490e+07 |   0.00%|  92.86%
*22.4s|   416 |    56 | 27916 |  58.4 |    LP  |  24 |2055 |2802 |3660 | 400 |  2 |  59 |1057 | 7.938520e+07 | 7.938490e+07 |   0.00%|  92.96%
i22.4s|   416 |    54 | 27916 |  58.4 |  oneopt|  24 |2055 |2802 |3660 | 400 |  2 |  59 |1057 | 7.938520e+07 | 7.938491e+07 |   0.00%|  92.96%
 23.9s|   500 |    64 | 32325 |  57.4 |   136M |  24 |2055 |2803 |3659 | 448 |  1 |  60 |1087 | 7.938518e+07 | 7.938491e+07 |   0.00%|  93.83%
 25.7s|   600 |    68 | 37366 |  56.3 |   137M |  24 |2055 |2809 |3663 | 465 |  1 |  66 |1108 | 7.938516e+07 | 7.938491e+07 |   0.00%|  95.44%
*25.7s|   603 |    67 | 37412 |  56.1 |    LP  |  24 |2055 |2809 |3663 | 465 |  2 |  66 |1109 | 7.938516e+07 | 7.938491e+07 |   0.00%|  95.44%
i25.7s|   603 |    63 | 37412 |  56.1 |  oneopt|  24 |2055 |2809 |3663 | 465 |  2 |  66 |1109 | 7.938516e+07 | 7.938492e+07 |   0.00%|  95.44%
 28.7s|   700 |    60 | 44311 |  58.2 |   141M |  24 |2055 |2822 |3686 | 536 |  1 |  79 |1136 | 7.938514e+07 | 7.938492e+07 |   0.00%|  96.85%
 30.0s|   800 |    28 | 49745 |  57.7 |   143M |  24 |2055 |2825 |3684 | 559 |  0 |  82 |1152 | 7.938509e+07 | 7.938492e+07 |   0.00%|  98.85%
 time | node  | left  |LP iter|LP it/n|mem/heur|mdpt |vars |cons |rows |cuts |sepa|confs|strbr|  dualbound   | primalbound  |  gap   | compl. 
 31.7s|   900 |    14 | 54687 |  56.8 |   145M |  24 |2055 |2827 |3675 | 583 |  1 |  84 |1157 | 7.938506e+07 | 7.938492e+07 |   0.00%|  99.63%

SCIP Status        : problem is solved [optimal solution found]
Solving Time (sec) : 32.54
Solving Nodes      : 948
Primal Bound       : +7.93849179680569e+07 (785 solutions)
Dual Bound         : +7.93849179680569e+07
Gap                : 0.00 %
Solve Status: optimal
Solve Time: 32.54 seconds
